111881
111382
108015
108015
108015
108015
107681
107681
106167
106167
102969
102969
99352.2
99352.2
98725.5
98725.5
98389.8
98062.1
97926
97918.9
97918.9
97791.7
94007.7
94007.7
94007.7
94007.7
93231.3
90635.9
90635.9
85157
85157
85157
85157
85157
85157
85157
85157
85157
84972.1
84811.2
84811.2
84796
84796
84069.7
84069.7
83304
83304
83304
83304
83304
83304
82828.6
82828.6
82828.6
82828.6
82828.6
81936.8
81936.8
81223.9
81091
81091
81091
80849.1
79555.1
79555.1
79555.1
79555.1
79555.1
79555.1
79555.1
79555.1
77172.8
77172.8
77172.8
77172.8
77172.8
77172.8
77172.8
77172.8
76563.8
76563.8
76563.8
76563.8
76563.8
76563.8
76563.8
76563.8
76563.8
76563.8
76352.9
76352.9
75996
75996
75746.2
74492.3
74492.3
74492.3
74492.3
74492.3
74492.3
